(set-info :source |printed by MathSAT|)

0 (7) @37:
(assert true)

7 (23,22,21,20,19,18,17,16,15,13,10,8) @53:
(assert true)

23 () @513:
(assert true)

22 () @514:
(assert true)

21 () @515:
(assert true)

20 () @516:
(assert true)

19 () @517:
(assert true)

18 () @518:
(assert true)

17 () @53:
(assert true)

16 () @519:
(assert true)

15 () @520:
(assert true)

13 () @521:
(assert true)

10 () @522:
(assert true)

8 () @523:
(assert true)

